p cnf 181 769
104 127 143 148 0
61 110 129 153 0
81 159 0
75 95 106 0
108 118 0
116 117 0
107 123 0
59 93 98 102 114 0
46 49 87 113 0
70 73 166 0
65 66 0
63 90 172 0
60 62 85 126 145 0
56 68 100 0
51 53 54 77 0
50 88 120 121 0
45 48 79 175 0
55 71 74 131 133 0
136 137 138 0
67 139 0
91 140 141 0
86 103 105 128 142 144 0
82 130 149 151 152 154 0
58 69 101 156 158 0
80 96 0
78 160 161 162 163 0
109 164 0
119 124 165 0
132 167 0
169 170 0
64 171 0
92 173 0
125 146 150 0
84 112 155 174 0
89 122 0
47 176 0
72 134 0
-177 -178 0
-127 -177 0
-61 -177 0
-95 -177 0
-127 -178 0
-61 -178 0
-95 -178 0
-61 -127 0
-95 -127 0
-61 -95 0
-116 -123 0
-102 -116 0
-87 -116 0
-116 -179 0
-102 -123 0
-87 -123 0
-123 -179 0
-87 -102 0
-102 -179 0
-87 -179 0
-63 -66 0
-62 -66 0
-66 -147 0
-54 -66 0
-62 -63 0
-63 -147 0
-54 -63 0
-62 -147 0
-54 -62 0
-54 -147 0
-140 -180 0
-142 -180 0
-149 -180 0
-160 -180 0
-140 -142 0
-140 -149 0
-140 -160 0
-142 -149 0
-142 -160 0
-149 -160 0
-119 -181 0
-94 -119 0
-115 -119 0
-119 -169 0
-94 -181 0
-115 -181 0
-169 -181 0
-94 -115 0
-94 -169 0
-115 -169 0
-116 -177 0
-66 -177 0
-177 -180 0
-119 -177 0
-66 -116 0
-116 -180 0
-116 -119 0
-66 -180 0
-66 -119 0
-119 -180 0
-123 -178 0
-63 -178 0
-140 -178 0
-178 -181 0
-63 -123 0
-123 -140 0
-123 -181 0
-63 -140 0
-63 -181 0
-140 -181 0
-102 -127 0
-62 -127 0
-127 -142 0
-94 -127 0
-62 -102 0
-102 -142 0
-94 -102 0
-62 -142 0
-62 -94 0
-94 -142 0
-61 -87 0
-61 -147 0
-61 -149 0
-61 -115 0
-87 -147 0
-87 -149 0
-87 -115 0
-147 -149 0
-115 -147 0
-115 -149 0
-95 -179 0
-54 -95 0
-95 -160 0
-95 -169 0
-54 -179 0
-160 -179 0
-169 -179 0
-54 -160 0
-54 -169 0
-160 -169 0
-98 -166 0
-69 -128 0
-98 -128 0
-69 -166 0
-93 -117 0
-113 -117 0
-73 -117 0
-44 -117 0
-93 -113 0
-73 -93 0
-44 -93 0
-73 -113 0
-44 -113 0
-44 -73 0
-65 -126 0
-65 -83 0
-65 -68 0
-53 -65 0
-83 -126 0
-68 -126 0
-53 -126 0
-68 -83 0
-53 -83 0
-53 -68 0
-43 -121 0
-43 -175 0
-43 -55 0
-43 -136 0
-121 -175 0
-55 -121 0
-121 -136 0
-55 -175 0
-136 -175 0
-55 -136 0
-42 -86 0
-42 -130 0
-42 -156 0
-42 -78 0
-86 -130 0
-86 -156 0
-78 -86 0
-130 -156 0
-78 -130 0
-78 -156 0
-97 -165 0
-41 -165 0
-165 -167 0
-165 -170 0
-41 -97 0
-97 -167 0
-97 -170 0
-41 -167 0
-41 -170 0
-167 -170 0
-65 -117 0
-43 -117 0
-42 -117 0
-117 -165 0
-43 -65 0
-42 -65 0
-65 -165 0
-42 -43 0
-43 -165 0
-42 -165 0
-93 -126 0
-93 -121 0
-86 -93 0
-93 -97 0
-121 -126 0
-86 -126 0
-97 -126 0
-86 -121 0
-97 -121 0
-86 -97 0
-83 -113 0
-113 -175 0
-113 -130 0
-41 -113 0
-83 -175 0
-83 -130 0
-41 -83 0
-130 -175 0
-41 -175 0
-41 -130 0
-68 -73 0
-55 -73 0
-73 -156 0
-73 -167 0
-55 -68 0
-68 -156 0
-68 -167 0
-55 -156 0
-55 -167 0
-156 -167 0
-44 -53 0
-44 -136 0
-44 -78 0
-44 -170 0
-53 -136 0
-53 -78 0
-53 -170 0
-78 -136 0
-136 -170 0
-78 -170 0
-59 -107 0
-49 -107 0
-40 -107 0
-39 -107 0
-49 -59 0
-40 -59 0
-39 -59 0
-40 -49 0
-39 -49 0
-39 -40 0
-85 -172 0
-111 -172 0
-77 -172 0
-38 -172 0
-85 -111 0
-77 -85 0
-38 -85 0
-77 -111 0
-38 -111 0
-38 -77 0
-105 -141 0
-141 -151 0
-141 -161 0
-109 -141 0
-105 -151 0
-105 -161 0
-105 -109 0
-151 -161 0
-109 -151 0
-109 -161 0
-92 -125 0
-84 -92 0
-52 -92 0
-37 -92 0
-84 -125 0
-52 -125 0
-37 -125 0
-52 -84 0
-37 -84 0
-37 -52 0
-36 -122 0
-36 -176 0
-36 -135 0
-35 -36 0
-122 -176 0
-122 -135 0
-35 -122 0
-135 -176 0
-35 -176 0
-35 -135 0
-107 -172 0
-107 -141 0
-92 -107 0
-36 -107 0
-141 -172 0
-92 -172 0
-36 -172 0
-92 -141 0
-36 -141 0
-36 -92 0
-59 -85 0
-59 -105 0
-59 -125 0
-59 -122 0
-85 -105 0
-85 -125 0
-85 -122 0
-105 -125 0
-105 -122 0
-122 -125 0
-49 -111 0
-49 -151 0
-49 -84 0
-49 -176 0
-111 -151 0
-84 -111 0
-111 -176 0
-84 -151 0
-151 -176 0
-84 -176 0
-40 -77 0
-40 -161 0
-40 -52 0
-40 -135 0
-77 -161 0
-52 -77 0
-77 -135 0
-52 -161 0
-135 -161 0
-52 -135 0
-38 -39 0
-39 -109 0
-37 -39 0
-35 -39 0
-38 -109 0
-37 -38 0
-35 -38 0
-37 -109 0
-35 -109 0
-35 -37 0
-33 -34 0
-34 -129 0
-32 -34 0
-34 -75 0
-33 -129 0
-32 -33 0
-33 -75 0
-32 -129 0
-75 -129 0
-32 -75 0
-30 -31 0
-31 -48 0
-31 -133 0
-31 -137 0
-30 -48 0
-30 -133 0
-30 -137 0
-48 -133 0
-48 -137 0
-133 -137 0
-28 -91 0
-28 -82 0
-28 -101 0
-28 -162 0
-82 -91 0
-91 -101 0
-91 -162 0
-82 -101 0
-82 -162 0
-101 -162 0
-171 -173 0
-112 -171 0
-27 -171 0
-76 -171 0
-112 -173 0
-27 -173 0
-76 -173 0
-27 -112 0
-76 -112 0
-27 -76 0
-25 -26 0
-26 -47 0
-26 -72 0
-24 -26 0
-25 -47 0
-25 -72 0
-24 -25 0
-47 -72 0
-24 -47 0
-24 -72 0
-31 -34 0
-28 -34 0
-34 -171 0
-26 -34 0
-28 -31 0
-31 -171 0
-26 -31 0
-28 -171 0
-26 -28 0
-26 -171 0
-30 -33 0
-33 -91 0
-33 -173 0
-25 -33 0
-30 -91 0
-30 -173 0
-25 -30 0
-91 -173 0
-25 -91 0
-25 -173 0
-48 -129 0
-82 -129 0
-112 -129 0
-47 -129 0
-48 -82 0
-48 -112 0
-47 -48 0
-82 -112 0
-47 -82 0
-47 -112 0
-32 -133 0
-32 -101 0
-27 -32 0
-32 -72 0
-101 -133 0
-27 -133 0
-72 -133 0
-27 -101 0
-72 -101 0
-27 -72 0
-75 -137 0
-75 -162 0
-75 -76 0
-24 -75 0
-137 -162 0
-76 -137 0
-24 -137 0
-76 -162 0
-24 -162 0
-24 -76 0
-23 -104 0
-23 -57 0
-23 -108 0
-57 -104 0
-104 -108 0
-57 -108 0
-90 -145 0
-90 -100 0
-22 -90 0
-100 -145 0
-22 -145 0
-22 -100 0
-21 -120 0
-21 -74 0
-21 -139 0
-74 -120 0
-120 -139 0
-74 -139 0
-29 -89 0
-29 -134 0
-20 -29 0
-89 -134 0
-20 -89 0
-20 -134 0
-23 -90 0
-21 -23 0
-23 -29 0
-21 -90 0
-29 -90 0
-21 -29 0
-104 -145 0
-104 -120 0
-89 -104 0
-120 -145 0
-89 -145 0
-89 -120 0
-57 -100 0
-57 -74 0
-57 -134 0
-74 -100 0
-100 -134 0
-74 -134 0
-22 -108 0
-108 -139 0
-20 -108 0
-22 -139 0
-20 -22 0
-20 -139 0
-19 -143 0
-19 -153 0
-19 -157 0
-19 -81 0
-143 -153 0
-143 -157 0
-81 -143 0
-153 -157 0
-81 -153 0
-81 -157 0
-18 -50 0
-18 -45 0
-18 -71 0
-17 -18 0
-45 -50 0
-50 -71 0
-17 -50 0
-45 -71 0
-17 -45 0
-17 -71 0
-16 -103 0
-16 -152 0
-16 -58 0
-16 -96 0
-103 -152 0
-58 -103 0
-96 -103 0
-58 -152 0
-96 -152 0
-58 -96 0
-15 -124 0
-14 -124 0
-124 -132 0
-13 -124 0
-14 -15 0
-15 -132 0
-13 -15 0
-14 -132 0
-13 -14 0
-13 -132 0
-64 -146 0
-64 -155 0
-64 -99 0
-12 -64 0
-146 -155 0
-99 -146 0
-12 -146 0
-99 -155 0
-12 -155 0
-12 -99 0
-18 -19 0
-16 -19 0
-19 -124 0
-19 -64 0
-16 -18 0
-18 -124 0
-18 -64 0
-16 -124 0
-16 -64 0
-64 -124 0
-50 -143 0
-103 -143 0
-15 -143 0
-143 -146 0
-50 -103 0
-15 -50 0
-50 -146 0
-15 -103 0
-103 -146 0
-15 -146 0
-45 -153 0
-152 -153 0
-14 -153 0
-153 -155 0
-45 -152 0
-14 -45 0
-45 -155 0
-14 -152 0
-152 -155 0
-14 -155 0
-71 -157 0
-58 -157 0
-132 -157 0
-99 -157 0
-58 -71 0
-71 -132 0
-71 -99 0
-58 -132 0
-58 -99 0
-99 -132 0
-17 -81 0
-81 -96 0
-13 -81 0
-12 -81 0
-17 -96 0
-13 -17 0
-12 -17 0
-13 -96 0
-12 -96 0
-12 -13 0
-110 -148 0
-11 -148 0
-148 -159 0
-106 -148 0
-118 -148 0
-11 -110 0
-110 -159 0
-106 -110 0
-110 -118 0
-11 -159 0
-11 -106 0
-11 -118 0
-106 -159 0
-118 -159 0
-106 -118 0
-46 -114 0
-70 -114 0
-114 -168 0
-10 -114 0
-9 -114 0
-46 -70 0
-46 -168 0
-10 -46 0
-9 -46 0
-70 -168 0
-10 -70 0
-9 -70 0
-10 -168 0
-9 -168 0
-9 -10 0
-8 -60 0
-56 -60 0
-7 -60 0
-51 -60 0
-6 -60 0
-8 -56 0
-7 -8 0
-8 -51 0
-6 -8 0
-7 -56 0
-51 -56 0
-6 -56 0
-7 -51 0
-6 -7 0
-6 -51 0
-79 -88 0
-88 -131 0
-5 -88 0
-88 -138 0
-67 -88 0
-79 -131 0
-5 -79 0
-79 -138 0
-67 -79 0
-5 -131 0
-131 -138 0
-67 -131 0
-5 -138 0
-5 -67 0
-67 -138 0
-144 -154 0
-144 -158 0
-80 -144 0
-144 -163 0
-144 -164 0
-154 -158 0
-80 -154 0
-154 -163 0
-154 -164 0
-80 -158 0
-158 -163 0
-158 -164 0
-80 -163 0
-80 -164 0
-163 -164 0
-150 -174 0
-4 -150 0
-3 -150 0
-2 -150 0
-1 -150 0
-4 -174 0
-3 -174 0
-2 -174 0
-1 -174 0
-3 -4 0
-2 -4 0
-1 -4 0
-2 -3 0
-1 -3 0
-1 -2 0
-114 -148 0
-60 -148 0
-88 -148 0
-144 -148 0
-148 -150 0
-60 -114 0
-88 -114 0
-114 -144 0
-114 -150 0
-60 -88 0
-60 -144 0
-60 -150 0
-88 -144 0
-88 -150 0
-144 -150 0
-46 -110 0
-8 -110 0
-79 -110 0
-110 -154 0
-110 -174 0
-8 -46 0
-46 -79 0
-46 -154 0
-46 -174 0
-8 -79 0
-8 -154 0
-8 -174 0
-79 -154 0
-79 -174 0
-154 -174 0
-11 -70 0
-11 -56 0
-11 -131 0
-11 -158 0
-4 -11 0
-56 -70 0
-70 -131 0
-70 -158 0
-4 -70 0
-56 -131 0
-56 -158 0
-4 -56 0
-131 -158 0
-4 -131 0
-4 -158 0
-159 -168 0
-7 -159 0
-5 -159 0
-80 -159 0
-3 -159 0
-7 -168 0
-5 -168 0
-80 -168 0
-3 -168 0
-5 -7 0
-7 -80 0
-3 -7 0
-5 -80 0
-3 -5 0
-3 -80 0
-10 -106 0
-51 -106 0
-106 -138 0
-106 -163 0
-2 -106 0
-10 -51 0
-10 -138 0
-10 -163 0
-2 -10 0
-51 -138 0
-51 -163 0
-2 -51 0
-138 -163 0
-2 -138 0
-2 -163 0
-9 -118 0
-6 -118 0
-67 -118 0
-118 -164 0
-1 -118 0
-6 -9 0
-9 -67 0
-9 -164 0
-1 -9 0
-6 -67 0
-6 -164 0
-1 -6 0
-67 -164 0
-1 -67 0
-1 -164 0
